
--- Job 1.Procesamiento.gms Start 03/06/24 23:08:22 45.7.0 64fbf3ce WEX-WEI x86 64bit/MS Windows
--- Applying:
    D:\Apps\GAMS\gmsprmNT.txt
--- GAMS Parameters defined
    Input "D:\Biblioteca\Escritorio\Universidad\MOS\Lab 2\1.Procesamiento.gms"
    PageSize 0
    ScrDir "D:\Biblioteca\Escritorio\Universidad\MOS\Lab 2\225a\"
    SysDir D:\Apps\GAMS\
    LogOption 3
    ErrMsg 1
    ErrorLog 99
    IDE 1
    LstTitleLeftAligned 1
*** License has expired 8 days ago
Licensee: GAMS Demo, for EULA and demo limitations see   G230930/0001CB-GEN
          https://www.gams.com/latest/docs/UG%5FLicense.html         DC0000
          D:\Apps\GAMS\gamslice.txt
          Demo license for demonstration and instructional purposes only
Processor information: 1 socket(s), 4 core(s), and 8 thread(s) available
GAMS 45.7.0   Copyright (C) 1987-2024 GAMS Development. All rights reserved
--- Starting compilation
--- 1.Procesamiento.gms(49) 3 Mb
--- Starting execution: elapsed 0:00:00.005
--- 1.Procesamiento.gms(44) 4 Mb
--- Generating LP model model1
--- 1.Procesamiento.gms(45) 4 Mb
---   11 rows  13 columns  37 non-zeroes
--- Range statistics (absolute non-zero finite values)
--- RHS       [min, max] : [ 5.000E+01, 1.200E+02] - Zero values observed as well
--- Bound     [min, max] : [        NA,        NA] - Zero values observed as well
--- Matrix    [min, max] : [ 1.000E+00, 6.000E+02]
--- Executing CPLEX (Solvelink=2): elapsed 0:00:01.830

IBM ILOG CPLEX   45.7.0 64fbf3ce Jan 18, 2024          WEI x86 64bit/MS Window

*** This solver runs with a demo license. No commercial use.
--- GMO setup time: 0.00s
--- GMO memory 0.50 Mb (peak 0.50 Mb)
--- Dictionary memory 0.00 Mb
--- Cplex 22.1.1.0 link memory 0.00 Mb (peak 0.00 Mb)
--- Starting Cplex

Version identifier: 22.1.1.0 | 2022-11-27 | 9160aff4d
CPXPARAM_Advance                                 0
CPXPARAM_Simplex_Display                         2
CPXPARAM_Threads                                 1
CPXPARAM_MIP_Display                             4
CPXPARAM_MIP_Pool_Capacity                       0
CPXPARAM_MIP_Tolerances_AbsMIPGap                0
Tried aggregator 1 time.
LP Presolve eliminated 0 rows and 1 columns.
Reduced LP has 10 rows, 12 columns, and 24 nonzeros.
Presolve time = 0.03 sec. (0.01 ticks)
Initializing dual steep norms . . .

Iteration      Dual Objective            In Variable           Out Variable
     1           95000.000000               u(o3,d2)restriccionOferta slack
     2           95000.000000               k(o3,d2)restriccionOferta slack
     3          103000.000000               u(o1,d1)restriccionOferta slack
     4          109000.000000               k(o1,d1)restriccionOferta slack
     5          111000.000000               u(o1,d2)               u(o2,d1)

--- LP status (1): optimal.
--- Cplex Time: 0.06sec (det. 0.02 ticks)


Optimal solution found
Objective:       111000.000000

--- Reading solution for model model1
--- Executing after solve: elapsed 0:00:01.951
--- 1.Procesamiento.gms(49) 4 Mb
*** Status: Normal completion
--- Job 1.Procesamiento.gms Stop 03/06/24 23:08:24 elapsed 0:00:01.951
